
Gurobi 9.5.0 (win64) logging started Tue Dec  7 01:37:05 2021

Set parameter LogFile to value "../results/logs/log_2021_12_07_01_36.csv_11_36.log"
Set parameter Method to value 3
Gurobi Optimizer version 9.5.0 build v9.5.0rc5 (win64)
Thread count: 6 physical cores, 12 logical processors, using up to 12 threads
Optimize a model with 6334 rows, 8078 columns and 360309 nonzeros
Model fingerprint: 0x7f9c5ff1
Variable types: 4039 continuous, 4039 integer (4039 binary)
Coefficient statistics:
  Matrix range     [1e+00, 1e+01]
  Objective range  [1e+00, 1e+00]
  Bounds range     [1e+00, 1e+00]
  RHS range        [1e+00, 4e+01]
Found heuristic solution: objective 2904.0000000
Presolve removed 6089 rows and 7747 columns
Presolve time: 0.05s
Presolved: 245 rows, 331 columns, 2186 nonzeros
Variable types: 160 continuous, 171 integer (158 binary)
Found heuristic solution: objective 2928.0000000

Root relaxation: objective 3.012773e+03, 249 iterations, 0.00 seconds (0.00 work units)

    Nodes    |    Current Node    |     Objective Bounds      |     Work
 Expl Unexpl |  Obj  Depth IntInf | Incumbent    BestBd   Gap | It/Node Time

     0     0 3012.77315    0   75 2928.00000 3012.77315  2.90%     -    0s
H    0     0                    2960.0000000 3012.77315  1.78%     -    0s
H    0     0                    2961.0000000 3012.77315  1.75%     -    0s
H    0     0                    2965.0000000 3012.77315  1.61%     -    0s
H    0     0                    2968.0000000 3012.52315  1.50%     -    0s
     0     0 2993.89178    0   53 2968.00000 2993.89178  0.87%     -    0s
H    0     0                    2969.0000000 2993.89178  0.84%     -    0s
     0     0 2992.62958    0   59 2969.00000 2992.62958  0.80%     -    0s
     0     0 2992.40131    0   61 2969.00000 2992.40131  0.79%     -    0s
     0     0 2992.40083    0   62 2969.00000 2992.40083  0.79%     -    0s
     0     0 2988.66621    0   47 2969.00000 2988.66621  0.66%     -    0s
H    0     0                    2970.0000000 2988.66621  0.63%     -    0s
     0     0 2988.07207    0   51 2970.00000 2988.07207  0.61%     -    0s
     0     0 2987.82274    0   50 2970.00000 2987.82274  0.60%     -    0s
     0     0 2987.78357    0   53 2970.00000 2987.78357  0.60%     -    0s
     0     0 2987.77571    0   52 2970.00000 2987.77571  0.60%     -    0s
     0     0 2986.81243    0   46 2970.00000 2986.81243  0.57%     -    0s
H    0     0                    2971.0000000 2986.81243  0.53%     -    0s
H    0     0                    2982.0000000 2986.59953  0.15%     -    0s
     0     0 2986.59953    0   42 2982.00000 2986.59953  0.15%     -    0s
     0     0 2986.50853    0   44 2982.00000 2986.50853  0.15%     -    0s
     0     0 2986.44625    0   46 2982.00000 2986.44625  0.15%     -    0s
     0     0 2986.42164    0   44 2982.00000 2986.42164  0.15%     -    0s
     0     0 2986.42121    0   34 2982.00000 2986.42121  0.15%     -    0s
     0     0 2986.21703    0   27 2982.00000 2986.21703  0.14%     -    0s
     0     0 2986.20020    0   37 2982.00000 2986.20020  0.14%     -    0s
     0     0 2986.17971    0   27 2982.00000 2986.17971  0.14%     -    0s
     0     0 2986.17971    0   27 2982.00000 2986.17971  0.14%     -    0s
H    0     0                    2985.0000000 2986.17971  0.04%     -    0s
     0     0 2986.17751    0   23 2985.00000 2986.17751  0.04%     -    0s
     0     0 2986.12218    0   12 2985.00000 2986.12218  0.04%     -    0s
     0     0     cutoff    0      2985.00000 2985.00000  0.00%     -    0s

Cutting planes:
  Gomory: 7
  Implied bound: 2
  MIR: 38
  Zero half: 1
  RLT: 6

Explored 1 nodes (1101 simplex iterations) in 0.32 seconds (0.14 work units)
Thread count was 12 (of 12 available processors)

Solution count 10: 2985 2982 2977 ... 2961

Optimal solution found (tolerance 1.00e-04)
Best objective 2.985000000000e+03, best bound 2.985000000000e+03, gap 0.0000%
